graph_generation/data/cp/rcsp/hexagonal_lattice_N_9_weights-random_windows-tight.dzn
N = 198;
M = 470;
Edge_Start = [1, 1, 2, 3, 3, 4, 5, 5, 6, 7, 7, 9, 9, 11, 11, 12, 13, 13, 14, 15, 16, 17, 17, 18, 19, 20, 21, 22, 23, 25, 25, 27, 27, 28, 29, 29, 30, 31, 31, 32, 33, 34, 35, 36, 37, 37, 38, 39, 40, 40, 41, 42, 43, 44, 44, 46, 48, 49, 50, 50, 51, 52, 52, 53, 54, 54, 55, 56, 56, 57, 58, 58, 60, 61, 61, 62, 63, 64, 65, 65, 66, 67, 68, 69, 69, 71, 71, 72, 73, 74, 75, 75, 76, 77, 77, 78, 79, 80, 80, 81, 82, 82, 84, 85, 86, 86, 88, 89, 90, 90, 91, 92, 93, 94, 94, 95, 96, 97, 98, 98, 100, 101, 101, 102, 103, 103, 104, 105, 106, 107, 107, 109, 109, 110, 111, 111, 112, 113, 113, 114, 115, 115, 117, 117, 118, 119, 120, 120, 121, 122, 123, 124, 124, 126, 126, 127, 128, 128, 129, 131, 132, 132, 133, 134, 134, 135, 136, 136, 137, 138, 138, 140, 141, 141, 143, 143, 144, 145, 145, 147, 147, 149, 149, 150, 151, 151, 152, 153, 153, 154, 155, 155, 156, 157, 157, 159, 160, 160, 161, 162, 162, 163, 164, 166, 166, 167, 168, 168, 169, 171, 172, 172, 173, 174, 175, 176, 177, 178, 178, 181, 182, 184, 185, 186, 187, 188, 189, 190, 191, 192, 193, 194, 195, 196, 197, 2, 20, 3, 4, 22, 5, 6, 24, 7, 8, 26, 10, 28, 12, 30, 13, 14, 32, 15, 34, 17, 18, 36, 19, 38, 21, 41, 23, 24, 26, 45, 28, 47, 29, 30, 49, 31, 32, 51, 33, 34, 35, 55, 37, 38, 57, 39, 59, 41, 60, 42, 62, 44, 45, 64, 47, 68, 50, 51, 70, 52, 53, 72, 54, 55, 74, 56, 57, 76, 58, 59, 78, 61, 62, 81, 63, 64, 65, 66, 85, 67, 68, 69, 70, 89, 72, 91, 73, 74, 75, 76, 95, 77, 78, 97, 79, 99, 81, 100, 82, 83, 102, 85, 86, 87, 106, 108, 90, 91, 110, 92, 112, 94, 95, 114, 96, 116, 98, 99, 118, 101, 102, 121, 103, 104, 123, 105, 125, 107, 108, 127, 110, 129, 111, 112, 131, 113, 114, 133, 115, 116, 135, 118, 137, 119, 139, 121, 140, 122, 142, 124, 125, 144, 127, 146, 128, 129, 148, 130, 132, 133, 152, 134, 135, 154, 136, 137, 156, 138, 139, 158, 141, 142, 161, 144, 163, 145, 146, 165, 148, 167, 150, 169, 151, 152, 171, 153, 154, 173, 155, 156, 175, 157, 158, 177, 179, 161, 180, 162, 163, 182, 164, 165, 167, 186, 168, 169, 188, 170, 172, 173, 192, 174, 194, 176, 196, 178, 179, 198, 182, 183, 185, 186, 187, 188, 189, 190, 191, 192, 193, 194, 195, 196, 197, 198];
Edge_End = [2, 20, 3, 4, 22, 5, 6, 24, 7, 8, 26, 10, 28, 12, 30, 13, 14, 32, 15, 34, 17, 18, 36, 19, 38, 21, 41, 23, 24, 26, 45, 28, 47, 29, 30, 49, 31, 32, 51, 33, 34, 35, 55, 37, 38, 57, 39, 59, 41, 60, 42, 62, 44, 45, 64, 47, 68, 50, 51, 70, 52, 53, 72, 54, 55, 74, 56, 57, 76, 58, 59, 78, 61, 62, 81, 63, 64, 65, 66, 85, 67, 68, 69, 70, 89, 72, 91, 73, 74, 75, 76, 95, 77, 78, 97, 79, 99, 81, 100, 82, 83, 102, 85, 86, 87, 106, 108, 90, 91, 110, 92, 112, 94, 95, 114, 96, 116, 98, 99, 118, 101, 102, 121, 103, 104, 123, 105, 125, 107, 108, 127, 110, 129, 111, 112, 131, 113, 114, 133, 115, 116, 135, 118, 137, 119, 139, 121, 140, 122, 142, 124, 125, 144, 127, 146, 128, 129, 148, 130, 132, 133, 152, 134, 135, 154, 136, 137, 156, 138, 139, 158, 141, 142, 161, 144, 163, 145, 146, 165, 148, 167, 150, 169, 151, 152, 171, 153, 154, 173, 155, 156, 175, 157, 158, 177, 179, 161, 180, 162, 163, 182, 164, 165, 167, 186, 168, 169, 188, 170, 172, 173, 192, 174, 194, 176, 196, 178, 179, 198, 182, 183, 185, 186, 187, 188, 189, 190, 191, 192, 193, 194, 195, 196, 197, 198, 1, 1, 2, 3, 3, 4, 5, 5, 6, 7, 7, 9, 9, 11, 11, 12, 13, 13, 14, 15, 16, 17, 17, 18, 19, 20, 21, 22, 23, 25, 25, 27, 27, 28, 29, 29, 30, 31, 31, 32, 33, 34, 35, 36, 37, 37, 38, 39, 40, 40, 41, 42, 43, 44, 44, 46, 48, 49, 50, 50, 51, 52, 52, 53, 54, 54, 55, 56, 56, 57, 58, 58, 60, 61, 61, 62, 63, 64, 65, 65, 66, 67, 68, 69, 69, 71, 71, 72, 73, 74, 75, 75, 76, 77, 77, 78, 79, 80, 80, 81, 82, 82, 84, 85, 86, 86, 88, 89, 90, 90, 91, 92, 93, 94, 94, 95, 96, 97, 98, 98, 100, 101, 101, 102, 103, 103, 104, 105, 106, 107, 107, 109, 109, 110, 111, 111, 112, 113, 113, 114, 115, 115, 117, 117, 118, 119, 120, 120, 121, 122, 123, 124, 124, 126, 126, 127, 128, 128, 129, 131, 132, 132, 133, 134, 134, 135, 136, 136, 137, 138, 138, 140, 141, 141, 143, 143, 144, 145, 145, 147, 147, 149, 149, 150, 151, 151, 152, 153, 153, 154, 155, 155, 156, 157, 157, 159, 160, 160, 161, 162, 162, 163, 164, 166, 166, 167, 168, 168, 169, 171, 172, 172, 173, 174, 175, 176, 177, 178, 178, 181, 182, 184, 185, 186, 187, 188, 189, 190, 191, 192, 193, 194, 195, 196, 197];
L = [4, 17, 8, 12, 7, 7, 8, 16, 17, 13, 3, 2, 12, 14, 11, 4, 5, 11, 10, 8, 5, 5, 3, 12, 6, 16, 7, 6, 3, 4, 16, 2, 4, 18, 5, 4, 5, 4, 1, 10, 4, 15, 4, 1, 14, 9, 14, 18, 16, 12, 13, 2, 13, 9, 5, 15, 10, 13, 11, 10, 15, 14, 3, 9, 8, 3, 5, 4, 15, 16, 17, 3, 14, 13, 10, 8, 18, 14, 6, 10, 10, 2, 13, 11, 6, 18, 2, 17, 6, 3, 6, 9, 6, 14, 2, 3, 9, 18, 15, 13, 17, 2, 13, 9, 7, 2, 17, 18, 16, 4, 10, 16, 14, 15, 6, 3, 10, 2, 17, 14, 7, 11, 19, 11, 7, 17, 2, 16, 6, 13, 17, 1, 11, 7, 12, 3, 14, 16, 13, 10, 18, 17, 16, 3, 9, 3, 8, 1, 1, 2, 7, 13, 13, 2, 3, 14, 16, 13, 13, 5, 7, 13, 13, 7, 13, 4, 19, 8, 16, 4, 8, 9, 8, 5, 7, 18, 11, 14, 13, 18, 8, 15, 13, 1, 6, 3, 5, 5, 7, 10, 19, 1, 17, 6, 13, 11, 13, 7, 6, 3, 2, 9, 6, 15, 8, 16, 7, 7, 14, 15, 7, 16, 6, 14, 12, 5, 16, 5, 4, 17, 15, 16, 13, 6, 3, 8, 9, 15, 14, 15, 6, 13, 12, 15, 10, 4, 17, 8, 12, 7, 7, 8, 16, 17, 13, 3, 2, 12, 14, 11, 4, 5, 11, 10, 8, 5, 5, 3, 12, 6, 16, 7, 6, 3, 4, 16, 2, 4, 18, 5, 4, 5, 4, 1, 10, 4, 15, 4, 1, 14, 9, 14, 18, 16, 12, 13, 2, 13, 9, 5, 15, 10, 13, 11, 10, 15, 14, 3, 9, 8, 3, 5, 4, 15, 16, 17, 3, 14, 13, 10, 8, 18, 14, 6, 10, 10, 2, 13, 11, 6, 18, 2, 17, 6, 3, 6, 9, 6, 14, 2, 3, 9, 18, 15, 13, 17, 2, 13, 9, 7, 2, 17, 18, 16, 4, 10, 16, 14, 15, 6, 3, 10, 2, 17, 14, 7, 11, 19, 11, 7, 17, 2, 16, 6, 13, 17, 1, 11, 7, 12, 3, 14, 16, 13, 10, 18, 17, 16, 3, 9, 3, 8, 1, 1, 2, 7, 13, 13, 2, 3, 14, 16, 13, 13, 5, 7, 13, 13, 7, 13, 4, 19, 8, 16, 4, 8, 9, 8, 5, 7, 18, 11, 14, 13, 18, 8, 15, 13, 1, 6, 3, 5, 5, 7, 10, 19, 1, 17, 6, 13, 11, 13, 7, 6, 3, 2, 9, 6, 15, 8, 16, 7, 7, 14, 15, 7, 16, 6, 14, 12, 5, 16, 5, 4, 17, 15, 16, 13, 6, 3, 8, 9, 15, 14, 15, 6, 13, 12, 15, 10];
T = [1, 10, 5, 13, 1, 3, 6, 19, 20, 18, 1, 1, 8, 12, 5, 9, 3, 20, 12, 2, 2, 6, 1, 9, 16, 12, 7, 1, 1, 7, 11, 1, 5, 20, 3, 4, 1, 1, 4, 7, 13, 8, 6, 1, 14, 18, 10, 19, 17, 10, 6, 4, 15, 11, 6, 18, 6, 11, 10, 5, 15, 6, 1, 3, 13, 1, 1, 1, 14, 16, 11, 14, 20, 5, 9, 17, 23, 19, 6, 15, 7, 2, 21, 14, 6, 21, 4, 15, 7, 10, 8, 11, 11, 13, 1, 1, 6, 26, 18, 8, 14, 2, 1, 12, 5, 1, 21, 17, 8, 4, 13, 9, 18, 21, 8, 1, 9, 4, 25, 18, 11, 9, 21, 16, 10, 14, 1, 7, 1, 10, 18, 1, 11, 1, 12, 3, 14, 11, 8, 18, 18, 12, 7, 2, 5, 1, 10, 1, 1, 7, 1, 11, 12, 1, 1, 12, 15, 15, 21, 1, 3, 8, 13, 12, 18, 12, 17, 2, 22, 10, 10, 13, 8, 12, 12, 23, 10, 15, 13, 20, 4, 8, 9, 1, 1, 6, 1, 11, 1, 16, 32, 1, 19, 9, 21, 2, 15, 6, 10, 1, 5, 12, 10, 8, 18, 21, 2, 6, 10, 8, 10, 13, 13, 14, 13, 9, 13, 10, 5, 12, 10, 8, 20, 1, 1, 12, 14, 10, 16, 12, 1, 9, 9, 14, 5, 1, 10, 5, 13, 1, 3, 6, 19, 20, 18, 1, 1, 8, 12, 5, 9, 3, 20, 12, 2, 2, 6, 1, 9, 16, 12, 7, 1, 1, 7, 11, 1, 5, 20, 3, 4, 1, 1, 4, 7, 13, 8, 6, 1, 14, 18, 10, 19, 17, 10, 6, 4, 15, 11, 6, 18, 6, 11, 10, 5, 15, 6, 1, 3, 13, 1, 1, 1, 14, 16, 11, 14, 20, 5, 9, 17, 23, 19, 6, 15, 7, 2, 21, 14, 6, 21, 4, 15, 7, 10, 8, 11, 11, 13, 1, 1, 6, 26, 18, 8, 14, 2, 1, 12, 5, 1, 21, 17, 8, 4, 13, 9, 18, 21, 8, 1, 9, 4, 25, 18, 11, 9, 21, 16, 10, 14, 1, 7, 1, 10, 18, 1, 11, 1, 12, 3, 14, 11, 8, 18, 18, 12, 7, 2, 5, 1, 10, 1, 1, 7, 1, 11, 12, 1, 1, 12, 15, 15, 21, 1, 3, 8, 13, 12, 18, 12, 17, 2, 22, 10, 10, 13, 8, 12, 12, 23, 10, 15, 13, 20, 4, 8, 9, 1, 1, 6, 1, 11, 1, 16, 32, 1, 19, 9, 21, 2, 15, 6, 10, 1, 5, 12, 10, 8, 18, 21, 2, 6, 10, 8, 10, 13, 13, 14, 13, 9, 13, 10, 5, 12, 10, 8, 20, 1, 1, 12, 14, 10, 16, 12, 1, 9, 9, 14, 5];
Lower_Bound = [0, 1, 6, 19, 22, 28, 48, 66, 196, 197, 173, 185, 188, 191, 190, 224, 222, 228, 237, 10, 22, 7, 8, 9, 56, 49, 189, 188, 168, 168, 167, 168, 175, 188, 196, 221, 220, 234, 244, 46, 29, 35, 93, 78, 67, 212, 194, 119, 164, 153, 163, 178, 184, 187, 200, 201, 202, 218, 229, 56, 44, 39, 56, 79, 98, 104, 111, 113, 134, 148, 169, 179, 194, 188, 198, 206, 217, 230, 231, 79, 53, 61, 75, 114, 113, 125, 130, 158, 140, 157, 165, 178, 214, 196, 209, 210, 218, 222, 237, 83, 72, 63, 79, 89, 90, 126, 127, 137, 162, 161, 162, 174, 177, 188, 206, 219, 225, 232, 237, 103, 93, 94, 93, 94, 97, 132, 133, 145, 160, 181, 165, 166, 169, 182, 194, 206, 223, 245, 238, 104, 109, 101, 118, 106, 116, 131, 180, 160, 184, 176, 175, 174, 175, 186, 202, 208, 227, 236, 257, 136, 121, 131, 132, 139, 129, 192, 184, 195, 193, 203, 181, 186, 176, 189, 203, 216, 248, 245, 255, 142, 148, 136, 146, 231, 223, 203, 202, 201, 213, 225, 215, 199, 204, 203, 212, 221, 235, 240];
Upper_Bound = [0, 1, 6, 19, 22, 28, 48, 66, 196, 197, 173, 185, 188, 191, 190, 224, 222, 228, 237, 10, 22, 7, 8, 9, 56, 49, 189, 188, 168, 168, 167, 168, 175, 188, 196, 221, 220, 234, 244, 46, 29, 35, 93, 78, 67, 212, 194, 119, 164, 153, 163, 178, 184, 187, 200, 201, 202, 218, 229, 56, 44, 39, 56, 79, 98, 104, 111, 113, 134, 148, 169, 179, 194, 188, 198, 206, 217, 230, 231, 79, 53, 61, 75, 114, 113, 125, 130, 158, 140, 157, 165, 178, 214, 196, 209, 210, 218, 222, 237, 83, 72, 63, 79, 89, 90, 126, 127, 137, 162, 161, 162, 174, 177, 188, 206, 219, 225, 232, 237, 103, 93, 94, 93, 94, 97, 132, 133, 145, 160, 181, 165, 166, 169, 182, 194, 206, 223, 245, 238, 104, 109, 101, 118, 106, 116, 131, 180, 160, 184, 176, 175, 174, 175, 186, 202, 208, 227, 236, 257, 136, 121, 131, 132, 139, 129, 192, 184, 195, 193, 203, 181, 186, 176, 189, 203, 216, 248, 245, 255, 142, 148, 136, 146, 231, 223, 203, 202, 201, 213, 225, 215, 199, 204, 203, 212, 221, 235, 240];
Start = 1;
End = 198;
Time = 240;
