graph_generation/data/sat/rcsp/hexagonal_lattice_N_9_weights-random_windows-tight.txt
N = 198;
M = 470;
Edge_Start = [1, 1, 2, 2, 3, 3, 3, 4, 4, 5, 5, 5, 6, 6, 7, 7, 7, 8, 9, 9, 10, 11, 11, 12, 12, 13, 13, 13, 14, 14, 15, 15, 16, 17, 17, 17, 18, 18, 19, 19, 20, 20, 21, 21, 22, 22, 23, 23, 24, 24, 25, 25, 26, 26, 27, 27, 28, 28, 28, 29, 29, 29, 30, 30, 30, 31, 31, 31, 32, 32, 32, 33, 33, 34, 34, 34, 35, 35, 36, 36, 37, 37, 37, 38, 38, 38, 39, 39, 40, 40, 41, 41, 41, 42, 42, 43, 44, 44, 44, 45, 45, 46, 47, 47, 48, 49, 49, 50, 50, 50, 51, 51, 51, 52, 52, 52, 53, 53, 54, 54, 54, 55, 55, 55, 56, 56, 56, 57, 57, 57, 58, 58, 58, 59, 59, 60, 60, 61, 61, 61, 62, 62, 62, 63, 63, 64, 64, 64, 65, 65, 65, 66, 66, 67, 67, 68, 68, 68, 69, 69, 69, 70, 70, 71, 71, 72, 72, 72, 73, 73, 74, 74, 74, 75, 75, 75, 76, 76, 76, 77, 77, 77, 78, 78, 78, 79, 79, 80, 80, 81, 81, 81, 82, 82, 82, 83, 84, 85, 85, 85, 86, 86, 86, 87, 88, 89, 89, 90, 90, 90, 91, 91, 91, 92, 92, 93, 94, 94, 94, 95, 95, 95, 96, 96, 97, 97, 98, 98, 98, 99, 99, 100, 100, 101, 101, 101, 102, 102, 102, 103, 103, 103, 104, 104, 105, 105, 106, 106, 107, 107, 107, 108, 108, 109, 109, 110, 110, 110, 111, 111, 111, 112, 112, 112, 113, 113, 113, 114, 114, 114, 115, 115, 115, 116, 116, 117, 117, 118, 118, 118, 119, 119, 120, 120, 121, 121, 121, 122, 122, 123, 123, 124, 124, 124, 125, 125, 126, 126, 127, 127, 127, 128, 128, 128, 129, 129, 129, 130, 131, 131, 132, 132, 132, 133, 133, 133, 134, 134, 134, 135, 135, 135, 136, 136, 136, 137, 137, 137, 138, 138, 138, 139, 139, 140, 140, 141, 141, 141, 142, 142, 143, 143, 144, 144, 144, 145, 145, 145, 146, 146, 147, 147, 148, 148, 149, 149, 150, 150, 151, 151, 151, 152, 152, 152, 153, 153, 153, 154, 154, 154, 155, 155, 155, 156, 156, 156, 157, 157, 157, 158, 158, 159, 160, 160, 161, 161, 161, 162, 162, 162, 163, 163, 163, 164, 164, 165, 165, 166, 166, 167, 167, 167, 168, 168, 168, 169, 169, 169, 170, 171, 171, 172, 172, 172, 173, 173, 173, 174, 174, 175, 175, 176, 176, 177, 177, 178, 178, 178, 179, 179, 180, 181, 182, 182, 182, 183, 184, 185, 185, 186, 186, 186, 187, 187, 188, 188, 188, 189, 189, 190, 190, 191, 191, 192, 192, 192, 193, 193, 194, 194, 194, 195, 195, 196, 196, 196, 197, 197, 198, 198];
Edge_End = [2, 20, 1, 3, 2, 4, 22, 3, 5, 4, 6, 24, 5, 7, 6, 8, 26, 7, 10, 28, 9, 12, 30, 11, 13, 12, 14, 32, 13, 15, 14, 34, 17, 16, 18, 36, 17, 19, 18, 38, 1, 21, 20, 41, 3, 23, 22, 24, 5, 23, 26, 45, 7, 25, 28, 47, 9, 27, 29, 28, 30, 49, 11, 29, 31, 30, 32, 51, 13, 31, 33, 32, 34, 15, 33, 35, 34, 55, 17, 37, 36, 38, 57, 19, 37, 39, 38, 59, 41, 60, 21, 40, 42, 41, 62, 44, 43, 45, 64, 25, 44, 47, 27, 46, 68, 29, 50, 49, 51, 70, 31, 50, 52, 51, 53, 72, 52, 54, 53, 55, 74, 35, 54, 56, 55, 57, 76, 37, 56, 58, 57, 59, 78, 39, 58, 40, 61, 60, 62, 81, 42, 61, 63, 62, 64, 44, 63, 65, 64, 66, 85, 65, 67, 66, 68, 48, 67, 69, 68, 70, 89, 50, 69, 72, 91, 52, 71, 73, 72, 74, 54, 73, 75, 74, 76, 95, 56, 75, 77, 76, 78, 97, 58, 77, 79, 78, 99, 81, 100, 61, 80, 82, 81, 83, 102, 82, 85, 65, 84, 86, 85, 87, 106, 86, 108, 69, 90, 89, 91, 110, 71, 90, 92, 91, 112, 94, 93, 95, 114, 75, 94, 96, 95, 116, 77, 98, 97, 99, 118, 79, 98, 80, 101, 100, 102, 121, 82, 101, 103, 102, 104, 123, 103, 105, 104, 125, 86, 107, 106, 108, 127, 88, 107, 110, 129, 90, 109, 111, 110, 112, 131, 92, 111, 113, 112, 114, 133, 94, 113, 115, 114, 116, 135, 96, 115, 118, 137, 98, 117, 119, 118, 139, 121, 140, 101, 120, 122, 121, 142, 103, 124, 123, 125, 144, 105, 124, 127, 146, 107, 126, 128, 127, 129, 148, 109, 128, 130, 129, 111, 132, 131, 133, 152, 113, 132, 134, 133, 135, 154, 115, 134, 136, 135, 137, 156, 117, 136, 138, 137, 139, 158, 119, 138, 120, 141, 140, 142, 161, 122, 141, 144, 163, 124, 143, 145, 144, 146, 165, 126, 145, 148, 167, 128, 147, 150, 169, 149, 151, 150, 152, 171, 132, 151, 153, 152, 154, 173, 134, 153, 155, 154, 156, 175, 136, 155, 157, 156, 158, 177, 138, 157, 179, 161, 180, 141, 160, 162, 161, 163, 182, 143, 162, 164, 163, 165, 145, 164, 167, 186, 147, 166, 168, 167, 169, 188, 149, 168, 170, 169, 151, 172, 171, 173, 192, 153, 172, 174, 173, 194, 155, 176, 175, 196, 157, 178, 177, 179, 198, 159, 178, 160, 182, 162, 181, 183, 182, 185, 184, 186, 166, 185, 187, 186, 188, 168, 187, 189, 188, 190, 189, 191, 190, 192, 172, 191, 193, 192, 194, 174, 193, 195, 194, 196, 176, 195, 197, 196, 198, 178, 197];
L = [4, 17, 4, 8, 8, 12, 7, 12, 7, 7, 8, 16, 8, 17, 17, 13, 3, 13, 2, 12, 2, 14, 11, 14, 4, 4, 5, 11, 5, 10, 10, 8, 5, 5, 5, 3, 5, 12, 12, 6, 17, 16, 16, 7, 7, 6, 6, 3, 16, 3, 4, 16, 3, 4, 2, 4, 12, 2, 18, 18, 5, 4, 11, 5, 5, 5, 4, 1, 11, 4, 10, 10, 4, 8, 4, 15, 15, 4, 3, 1, 1, 14, 9, 6, 14, 14, 14, 18, 16, 12, 7, 16, 13, 13, 2, 13, 13, 9, 5, 16, 9, 15, 4, 15, 10, 4, 13, 13, 11, 10, 1, 11, 15, 15, 14, 3, 14, 9, 9, 8, 3, 4, 8, 5, 5, 4, 15, 9, 4, 16, 16, 17, 3, 18, 17, 12, 14, 14, 13, 10, 2, 13, 8, 8, 18, 5, 18, 14, 14, 6, 10, 6, 10, 10, 2, 10, 2, 13, 13, 11, 6, 10, 11, 18, 2, 3, 18, 17, 17, 6, 3, 6, 3, 3, 6, 9, 15, 6, 6, 6, 14, 2, 3, 14, 3, 3, 9, 18, 15, 10, 18, 13, 13, 17, 2, 17, 13, 10, 13, 9, 9, 7, 2, 7, 17, 6, 18, 18, 16, 4, 2, 16, 10, 10, 16, 14, 14, 15, 6, 9, 15, 3, 3, 10, 2, 2, 2, 17, 14, 9, 17, 15, 7, 7, 11, 19, 2, 11, 11, 11, 7, 17, 7, 2, 2, 16, 2, 6, 6, 13, 17, 17, 13, 1, 11, 4, 1, 7, 7, 12, 3, 16, 12, 14, 14, 16, 13, 6, 16, 10, 10, 18, 17, 10, 18, 16, 3, 14, 16, 9, 9, 3, 8, 1, 19, 8, 1, 1, 2, 17, 7, 7, 13, 13, 16, 13, 2, 3, 17, 2, 14, 14, 16, 13, 11, 16, 13, 13, 3, 5, 5, 7, 13, 13, 7, 13, 13, 7, 13, 17, 7, 4, 4, 19, 8, 3, 19, 16, 16, 4, 8, 3, 4, 1, 9, 9, 8, 5, 2, 8, 7, 18, 13, 7, 11, 11, 14, 13, 3, 14, 18, 8, 13, 18, 15, 13, 15, 1, 1, 6, 3, 13, 6, 5, 5, 5, 7, 13, 5, 10, 10, 19, 1, 8, 19, 17, 17, 6, 13, 8, 6, 11, 13, 7, 5, 13, 6, 6, 3, 2, 18, 3, 9, 9, 6, 13, 6, 15, 8, 8, 15, 16, 16, 7, 7, 13, 7, 14, 14, 3, 15, 15, 7, 16, 7, 7, 6, 6, 14, 1, 12, 12, 5, 13, 16, 16, 5, 4, 11, 5, 7, 17, 2, 17, 15, 15, 16, 16, 13, 8, 13, 6, 6, 3, 7, 3, 8, 8, 9, 9, 15, 15, 14, 16, 14, 15, 15, 6, 14, 6, 13, 13, 12, 5, 12, 15, 15, 10, 4, 10];
T = [8, 19, 8, 12, 12, 17, 12, 17, 1, 1, 18, 11, 18, 22, 22, 1, 6, 1, 1, 10, 1, 9, 17, 9, 8, 8, 11, 6, 11, 9, 9, 15, 1, 1, 5, 8, 5, 8, 8, 6, 19, 22, 22, 8, 12, 10, 10, 1, 11, 1, 1, 17, 6, 1, 7, 1, 10, 7, 18, 18, 5, 1, 17, 5, 1, 1, 1, 1, 6, 1, 7, 7, 7, 15, 7, 10, 10, 4, 8, 1, 1, 11, 7, 6, 11, 12, 12, 17, 13, 17, 8, 13, 22, 22, 6, 17, 17, 11, 10, 17, 11, 21, 1, 21, 24, 1, 10, 10, 10, 16, 1, 10, 8, 8, 18, 1, 18, 10, 10, 11, 8, 4, 11, 6, 6, 1, 16, 7, 1, 16, 16, 18, 4, 17, 18, 17, 14, 14, 9, 3, 6, 9, 4, 4, 12, 10, 12, 12, 12, 11, 15, 11, 12, 12, 3, 24, 3, 12, 12, 10, 12, 16, 10, 12, 12, 1, 12, 14, 14, 21, 8, 21, 11, 11, 6, 7, 16, 6, 4, 4, 26, 3, 4, 26, 1, 1, 10, 31, 19, 3, 31, 15, 15, 15, 1, 15, 21, 15, 21, 2, 2, 7, 2, 7, 28, 12, 18, 18, 8, 1, 12, 8, 4, 4, 18, 11, 11, 17, 1, 7, 17, 8, 8, 12, 3, 1, 1, 22, 15, 10, 22, 19, 1, 1, 13, 16, 1, 13, 10, 10, 19, 20, 19, 1, 1, 17, 2, 12, 12, 16, 18, 28, 16, 1, 16, 1, 1, 7, 7, 7, 11, 18, 7, 19, 19, 22, 19, 1, 22, 17, 17, 18, 16, 12, 18, 23, 1, 15, 23, 16, 16, 5, 3, 7, 16, 3, 1, 1, 5, 20, 1, 1, 3, 14, 17, 3, 1, 1, 18, 1, 4, 4, 10, 2, 16, 10, 10, 10, 11, 1, 1, 7, 15, 19, 7, 7, 7, 4, 21, 16, 4, 3, 3, 23, 12, 1, 23, 20, 20, 1, 6, 5, 1, 7, 21, 21, 1, 6, 5, 1, 4, 8, 14, 4, 6, 6, 12, 21, 1, 12, 9, 6, 2, 9, 14, 13, 14, 1, 1, 1, 8, 15, 1, 8, 8, 18, 3, 21, 18, 11, 11, 19, 2, 12, 19, 14, 14, 4, 12, 6, 4, 6, 12, 2, 6, 12, 5, 5, 6, 1, 8, 6, 1, 1, 6, 21, 6, 21, 12, 6, 21, 18, 18, 8, 12, 13, 8, 8, 8, 8, 11, 11, 9, 20, 3, 9, 8, 8, 10, 2, 10, 10, 4, 12, 12, 12, 13, 5, 6, 13, 2, 19, 1, 19, 10, 10, 12, 12, 20, 12, 20, 11, 11, 8, 12, 8, 10, 10, 10, 10, 8, 8, 15, 20, 15, 22, 22, 5, 10, 5, 16, 16, 13, 4, 13, 16, 16, 4, 5, 4];
Lower_Bound = [0, 8, 20, 37, 38, 56, 78, 79, 208, 209, 198, 195, 187, 198, 207, 233, 232, 237, 240, 19, 41, 32, 42, 43, 85, 84, 205, 198, 180, 181, 180, 181, 188, 195, 205, 224, 223, 234, 246, 62, 49, 71, 120, 103, 102, 227, 206, 155, 179, 169, 179, 187, 205, 215, 209, 215, 216, 232, 250, 79, 86, 77, 81, 93, 105, 116, 128, 131, 143, 153, 193, 188, 202, 223, 234, 231, 235, 236, 237, 120, 89, 104, 119, 141, 120, 122, 129, 180, 155, 173, 181, 185, 241, 230, 241, 249, 238, 239, 247, 119, 118, 105, 115, 134, 135, 124, 136, 152, 175, 174, 181, 188, 207, 229, 227, 245, 238, 254, 256, 137, 134, 135, 135, 136, 139, 155, 154, 158, 168, 178, 192, 193, 200, 207, 211, 214, 237, 250, 251, 144, 141, 140, 154, 150, 156, 156, 169, 160, 214, 210, 209, 208, 216, 228, 239, 226, 240, 244, 283, 159, 147, 152, 158, 159, 165, 196, 175, 193, 201, 209, 217, 228, 219, 227, 241, 251, 252, 264, 277, 161, 172, 153, 163, 240, 228, 208, 213, 205, 215, 225, 233, 248, 242, 237, 253, 255, 271, 269];
Upper_Bound = [0, 8, 20, 37, 38, 56, 78, 79, 208, 209, 198, 195, 187, 198, 207, 233, 232, 237, 240, 19, 41, 32, 42, 43, 85, 84, 205, 198, 180, 181, 180, 181, 188, 195, 205, 224, 223, 234, 246, 62, 49, 71, 120, 103, 102, 227, 206, 155, 179, 169, 179, 187, 205, 215, 209, 215, 216, 232, 250, 79, 86, 77, 81, 93, 105, 116, 128, 131, 143, 153, 193, 188, 202, 223, 234, 231, 235, 236, 237, 120, 89, 104, 119, 141, 120, 122, 129, 180, 155, 173, 181, 185, 241, 230, 241, 249, 238, 239, 247, 119, 118, 105, 115, 134, 135, 124, 136, 152, 175, 174, 181, 188, 207, 229, 227, 245, 238, 254, 256, 137, 134, 135, 135, 136, 139, 155, 154, 158, 168, 178, 192, 193, 200, 207, 211, 214, 237, 250, 251, 144, 141, 140, 154, 150, 156, 156, 169, 160, 214, 210, 209, 208, 216, 228, 239, 226, 240, 244, 283, 159, 147, 152, 158, 159, 165, 196, 175, 193, 201, 209, 217, 228, 219, 227, 241, 251, 252, 264, 277, 161, 172, 153, 163, 240, 228, 208, 213, 205, 215, 225, 233, 248, 242, 237, 253, 255, 271, 269];
Start = 1;
End = 198;
Time = 269;
